n = 39;
rows = 109;
supports = [|
  {1},{1},
 |{1},5..36,
 |{2},{2},
 |{2},6..37,
 |{3},{3},
 |{3},7..38,
 |{4},{4},
 |{4},8..39,
 |{5},{5},
 |{5},{1},
 |{5},9..39,
 |{6},{6},
 |{6},1..2,
 |{6},10..39,
 |{7},{7},
 |{7},1..3,
 |{7},11..39,
 |{8},{8},
 |{8},1..4,
 |{8},12..39,
 |{9},{9},
 |{9},1..5,
 |{9},13..39,
 |{10},{10},
 |{10},1..6,
 |{10},14..39,
 |{11},{11},
 |{11},1..7,
 |{11},15..39,
 |{12},{12},
 |{12},1..8,
 |{12},16..39,
 |{13},{13},
 |{13},1..9,
 |{13},17..39,
 |{14},{14},
 |{14},1..10,
 |{14},18..39,
 |{15},{15},
 |{15},1..11,
 |{15},19..39,
 |{16},{16},
 |{16},1..12,
 |{16},20..39,
 |{17},{17},
 |{17},1..13,
 |{17},21..39,
 |{18},{18},
 |{18},1..14,
 |{18},22..39,
 |{19},{19},
 |{19},1..15,
 |{19},23..39,
 |{20},{20},
 |{20},1..16,
 |{20},24..39,
 |{21},{21},
 |{21},1..17,
 |{21},25..39,
 |{22},{22},
 |{22},1..18,
 |{22},26..39,
 |{23},{23},
 |{23},1..19,
 |{23},27..39,
 |{24},{24},
 |{24},1..20,
 |{24},28..39,
 |{25},{25},
 |{25},1..21,
 |{25},29..39,
 |{26},{26},
 |{26},1..22,
 |{26},30..39,
 |{27},{27},
 |{27},1..23,
 |{27},31..39,
 |{28},{28},
 |{28},1..24,
 |{28},32..39,
 |{29},{29},
 |{29},1..25,
 |{29},33..39,
 |{30},{30},
 |{30},1..26,
 |{30},34..39,
 |{31},{31},
 |{31},1..27,
 |{31},35..39,
 |{32},{32},
 |{32},1..28,
 |{32},36..39,
 |{33},{33},
 |{33},1..29,
 |{33},37..39,
 |{34},{34},
 |{34},1..30,
 |{34},38..39,
 |{35},{35},
 |{35},1..31,
 |{35},{39},
 |{36},{36},
 |{36},1..32,
 |{37},{37},
 |{37},2..33,
 |{38},{38},
 |{38},3..34,
 |{39},{39},
 |{39},4..35 |];

t = 46;

indexes = [|
    0,5,
  | 0,29,
  | 1,8,
  | 1,35,
  | 2,23,
  | 2,25,
  | 2,35,
  | 3,21,
  | 4,29,
  | 5,11,
  | 6,25,
  | 7,14,
  | 7,21,
  | 7,22,
  | 8,24,
  | 8,32,
  | 9,12,
  | 10,34,
  | 10,38,
  | 11,38,
  | 12,17,
  | 12,29,
  | 13,32,
  | 13,35,
  | 14,33,
  | 15,22,
  | 15,26,
  | 15,27,
  | 16,31,
  | 17,18,
  | 17,19,
  | 17,31,
  | 18,31,
  | 19,36,
  | 20,32,
  | 21,33,
  | 22,30,
  | 26,27,
  | 26,36,
  | 27,29,
  | 28,34,
  | 28,38,
  | 30,35,
  | 33,34,
  | 34,37,
  | 35,36 |];

